\ Model minCut
\ LP format - for model browsing. Use MPS format to capture full model detail.
Minimize
  edge[0,1,1] + edge[0,14,1] + edge[0,18,1] + edge[0,53,1] + edge[1,0,1]
   + edge[1,6,1] + edge[1,14,1] + edge[1,21,1] + edge[1,42,1]
   + edge[1,56,1] + edge[2,3,1] + edge[2,7,1] + edge[2,9,1] + edge[2,11,1]
   + edge[2,14,1] + edge[2,27,1] + edge[2,38,1] + edge[2,52,1]
   + edge[3,2,1] + edge[3,4,1] + edge[3,5,1] + edge[3,21,1] + edge[3,27,1]
   + edge[3,33,1] + edge[3,34,1] + edge[3,36,1] + edge[3,38,1]
   + edge[3,47,1] + edge[3,55,1] + edge[4,3,1] + edge[4,8,1] + edge[4,18,1]
   + edge[4,25,1] + edge[4,32,1] + edge[4,35,1] + edge[4,36,1]
   + edge[4,42,1] + edge[5,3,1] + edge[5,10,1] + edge[5,31,1]
   + edge[5,34,1] + edge[6,1,1] + edge[6,10,1] + edge[6,31,1]
   + edge[6,41,1] + edge[7,2,1] + edge[7,12,1] + edge[7,41,1]
   + edge[7,45,1] + edge[7,49,1] + edge[7,53,1] + edge[7,58,1]
   + edge[8,4,1] + edge[8,27,1] + edge[8,39,1] + edge[8,50,1]
   + edge[8,57,1] + edge[9,2,1] + edge[9,20,1] + edge[9,25,1]
   + edge[9,47,1] + edge[9,51,1] + edge[10,5,1] + edge[10,6,1]
   + edge[10,21,1] + edge[10,23,1] + edge[10,39,1] + edge[10,40,1]
   + edge[11,2,1] + edge[11,13,1] + edge[11,18,1] + edge[11,32,1]
   + edge[11,45,1] + edge[12,7,1] + edge[12,25,1] + edge[12,34,1]
   + edge[13,11,1] + edge[13,32,1] + edge[13,33,1] + edge[13,37,1]
   + edge[13,53,1] + edge[13,56,1] + edge[13,58,1] + edge[14,0,1]
   + edge[14,1,1] + edge[14,2,1] + edge[14,23,1] + edge[14,30,1]
   + edge[14,32,1] + edge[14,36,1] + edge[14,49,1] + edge[14,54,1]
   + edge[15,26,1] + edge[15,37,1] + edge[15,56,1] + edge[16,26,1]
   + edge[16,31,1] + edge[17,24,1] + edge[17,28,1] + edge[17,35,1]
   + edge[17,37,1] + edge[17,42,1] + edge[17,46,1] + edge[17,47,1]
   + edge[18,0,1] + edge[18,4,1] + edge[18,11,1] + edge[18,24,1]
   + edge[18,27,1] + edge[18,38,1] + edge[18,50,1] + edge[19,24,1]
   + edge[19,34,1] + edge[19,38,1] + edge[19,43,1] + edge[19,45,1]
   + edge[19,47,1] + edge[19,52,1] + edge[19,54,1] + edge[19,55,1]
   + edge[20,9,1] + edge[20,27,1] + edge[20,34,1] + edge[20,40,1]
   + edge[20,42,1] + edge[21,1,1] + edge[21,3,1] + edge[21,10,1]
   + edge[22,29,1] + edge[22,32,1] + edge[22,36,1] + edge[23,10,1]
   + edge[23,14,1] + edge[23,34,1] + edge[23,35,1] + edge[23,41,1]
   + edge[23,49,1] + edge[24,17,1] + edge[24,18,1] + edge[24,19,1]
   + edge[24,34,1] + edge[24,51,1] + edge[24,57,1] + edge[25,4,1]
   + edge[25,9,1] + edge[25,12,1] + edge[25,32,1] + edge[25,33,1]
   + edge[25,34,1] + edge[25,39,1] + edge[25,40,1] + edge[25,48,1]
   + edge[26,15,1] + edge[26,16,1] + edge[26,33,1] + edge[26,35,1]
   + edge[26,41,1] + edge[26,51,1] + edge[27,2,1] + edge[27,3,1]
   + edge[27,8,1] + edge[27,18,1] + edge[27,20,1] + edge[27,51,1]
   + edge[28,17,1] + edge[28,46,1] + edge[29,22,1] + edge[29,32,1]
   + edge[29,40,1] + edge[29,53,1] + edge[30,14,1] + edge[30,33,1]
   + edge[30,34,1] + edge[30,35,1] + edge[31,5,1] + edge[31,6,1]
   + edge[31,16,1] + edge[31,35,1] + edge[31,49,1] + edge[31,57,1]
   + edge[32,4,1] + edge[32,11,1] + edge[32,13,1] + edge[32,14,1]
   + edge[32,22,1] + edge[32,25,1] + edge[32,29,1] + edge[32,41,1]
   + edge[33,3,1] + edge[33,13,1] + edge[33,25,1] + edge[33,26,1]
   + edge[33,30,1] + edge[33,49,1] + edge[34,3,1] + edge[34,5,1]
   + edge[34,12,1] + edge[34,19,1] + edge[34,20,1] + edge[34,23,1]
   + edge[34,24,1] + edge[34,25,1] + edge[34,30,1] + edge[35,4,1]
   + edge[35,17,1] + edge[35,23,1] + edge[35,26,1] + edge[35,30,1]
   + edge[35,31,1] + edge[35,45,1] + edge[35,49,1] + edge[36,3,1]
   + edge[36,4,1] + edge[36,14,1] + edge[36,22,1] + edge[36,37,1]
   + edge[36,54,1] + edge[37,13,1] + edge[37,15,1] + edge[37,17,1]
   + edge[37,36,1] + edge[37,42,1] + edge[37,44,1] + edge[37,50,1]
   + edge[38,2,1] + edge[38,3,1] + edge[38,18,1] + edge[38,19,1]
   + edge[38,40,1] + edge[38,47,1] + edge[38,52,1] + edge[39,8,1]
   + edge[39,10,1] + edge[39,25,1] + edge[40,10,1] + edge[40,20,1]
   + edge[40,25,1] + edge[40,29,1] + edge[40,38,1] + edge[40,43,1]
   + edge[41,6,1] + edge[41,7,1] + edge[41,23,1] + edge[41,26,1]
   + edge[41,32,1] + edge[41,50,1] + edge[41,54,1] + edge[42,1,1]
   + edge[42,4,1] + edge[42,17,1] + edge[42,20,1] + edge[42,37,1]
   + edge[42,54,1] + edge[43,19,1] + edge[43,40,1] + edge[43,55,1]
   + edge[44,37,1] + edge[44,49,1] + edge[45,7,1] + edge[45,11,1]
   + edge[45,19,1] + edge[45,35,1] + edge[45,56,1] + edge[46,17,1]
   + edge[46,28,1] + edge[47,3,1] + edge[47,9,1] + edge[47,17,1]
   + edge[47,19,1] + edge[47,38,1] + edge[47,49,1] + edge[48,25,1]
   + edge[48,58,1] + edge[49,7,1] + edge[49,14,1] + edge[49,23,1]
   + edge[49,31,1] + edge[49,33,1] + edge[49,35,1] + edge[49,44,1]
   + edge[49,47,1] + edge[50,8,1] + edge[50,18,1] + edge[50,37,1]
   + edge[50,41,1] + edge[50,58,1] + edge[51,9,1] + edge[51,24,1]
   + edge[51,26,1] + edge[51,27,1] + edge[52,2,1] + edge[52,19,1]
   + edge[52,38,1] + edge[52,57,1] + edge[53,0,1] + edge[53,7,1]
   + edge[53,13,1] + edge[53,29,1] + edge[54,14,1] + edge[54,19,1]
   + edge[54,36,1] + edge[54,41,1] + edge[54,42,1] + edge[54,56,1]
   + edge[55,3,1] + edge[55,19,1] + edge[55,43,1] + edge[56,1,1]
   + edge[56,13,1] + edge[56,15,1] + edge[56,45,1] + edge[56,54,1]
   + edge[57,8,1] + edge[57,24,1] + edge[57,31,1] + edge[57,52,1]
   + edge[58,7,1] + edge[58,13,1] + edge[58,48,1] + edge[58,50,1]
Subject To
 R0: z_node[0] - z_node[1] + edge[0,1,1] >= 0
 R1: z_node[0] - z_node[14] + edge[0,14,1] >= 0
 R2: z_node[0] - z_node[18] + edge[0,18,1] >= 0
 R3: z_node[0] - z_node[53] + edge[0,53,1] >= 0
 R4: - z_node[0] + z_node[1] + edge[1,0,1] >= 0
 R5: z_node[1] - z_node[6] + edge[1,6,1] >= 0
 R6: z_node[1] - z_node[14] + edge[1,14,1] >= 0
 R7: z_node[1] - z_node[21] + edge[1,21,1] >= 0
 R8: z_node[1] - z_node[42] + edge[1,42,1] >= 0
 R9: z_node[1] - z_node[56] + edge[1,56,1] >= 0
 R10: z_node[2] - z_node[3] + edge[2,3,1] >= 0
 R11: z_node[2] - z_node[7] + edge[2,7,1] >= 0
 R12: z_node[2] - z_node[9] + edge[2,9,1] >= 0
 R13: z_node[2] - z_node[11] + edge[2,11,1] >= 0
 R14: z_node[2] - z_node[14] + edge[2,14,1] >= 0
 R15: z_node[2] - z_node[27] + edge[2,27,1] >= 0
 R16: z_node[2] - z_node[38] + edge[2,38,1] >= 0
 R17: z_node[2] - z_node[52] + edge[2,52,1] >= 0
 R18: - z_node[2] + z_node[3] + edge[3,2,1] >= 0
 R19: z_node[3] - z_node[4] + edge[3,4,1] >= 0
 R20: z_node[3] - z_node[5] + edge[3,5,1] >= 0
 R21: z_node[3] - z_node[21] + edge[3,21,1] >= 0
 R22: z_node[3] - z_node[27] + edge[3,27,1] >= 0
 R23: z_node[3] - z_node[33] + edge[3,33,1] >= 0
 R24: z_node[3] - z_node[34] + edge[3,34,1] >= 0
 R25: z_node[3] - z_node[36] + edge[3,36,1] >= 0
 R26: z_node[3] - z_node[38] + edge[3,38,1] >= 0
 R27: z_node[3] - z_node[47] + edge[3,47,1] >= 0
 R28: z_node[3] - z_node[55] + edge[3,55,1] >= 0
 R29: - z_node[3] + z_node[4] + edge[4,3,1] >= 0
 R30: z_node[4] - z_node[8] + edge[4,8,1] >= 0
 R31: z_node[4] - z_node[18] + edge[4,18,1] >= 0
 R32: z_node[4] - z_node[25] + edge[4,25,1] >= 0
 R33: z_node[4] - z_node[32] + edge[4,32,1] >= 0
 R34: z_node[4] - z_node[35] + edge[4,35,1] >= 0
 R35: z_node[4] - z_node[36] + edge[4,36,1] >= 0
 R36: z_node[4] - z_node[42] + edge[4,42,1] >= 0
 R37: - z_node[3] + z_node[5] + edge[5,3,1] >= 0
 R38: z_node[5] - z_node[10] + edge[5,10,1] >= 0
 R39: z_node[5] - z_node[31] + edge[5,31,1] >= 0
 R40: z_node[5] - z_node[34] + edge[5,34,1] >= 0
 R41: - z_node[1] + z_node[6] + edge[6,1,1] >= 0
 R42: z_node[6] - z_node[10] + edge[6,10,1] >= 0
 R43: z_node[6] - z_node[31] + edge[6,31,1] >= 0
 R44: z_node[6] - z_node[41] + edge[6,41,1] >= 0
 R45: - z_node[2] + z_node[7] + edge[7,2,1] >= 0
 R46: z_node[7] - z_node[12] + edge[7,12,1] >= 0
 R47: z_node[7] - z_node[41] + edge[7,41,1] >= 0
 R48: z_node[7] - z_node[45] + edge[7,45,1] >= 0
 R49: z_node[7] - z_node[49] + edge[7,49,1] >= 0
 R50: z_node[7] - z_node[53] + edge[7,53,1] >= 0
 R51: z_node[7] - z_node[58] + edge[7,58,1] >= 0
 R52: - z_node[4] + z_node[8] + edge[8,4,1] >= 0
 R53: z_node[8] - z_node[27] + edge[8,27,1] >= 0
 R54: z_node[8] - z_node[39] + edge[8,39,1] >= 0
 R55: z_node[8] - z_node[50] + edge[8,50,1] >= 0
 R56: - z_node[2] + z_node[9] + edge[9,2,1] >= 0
 R57: z_node[9] - z_node[20] + edge[9,20,1] >= 0
 R58: z_node[9] - z_node[25] + edge[9,25,1] >= 0
 R59: z_node[9] - z_node[47] + edge[9,47,1] >= 0
 R60: z_node[9] - z_node[51] + edge[9,51,1] >= 0
 R61: - z_node[5] + z_node[10] + edge[10,5,1] >= 0
 R62: - z_node[6] + z_node[10] + edge[10,6,1] >= 0
 R63: z_node[10] - z_node[21] + edge[10,21,1] >= 0
 R64: z_node[10] - z_node[23] + edge[10,23,1] >= 0
 R65: z_node[10] - z_node[39] + edge[10,39,1] >= 0
 R66: z_node[10] - z_node[40] + edge[10,40,1] >= 0
 R67: - z_node[2] + z_node[11] + edge[11,2,1] >= 0
 R68: z_node[11] - z_node[13] + edge[11,13,1] >= 0
 R69: z_node[11] - z_node[18] + edge[11,18,1] >= 0
 R70: z_node[11] - z_node[32] + edge[11,32,1] >= 0
 R71: z_node[11] - z_node[45] + edge[11,45,1] >= 0
 R72: - z_node[7] + z_node[12] + edge[12,7,1] >= 0
 R73: z_node[12] - z_node[25] + edge[12,25,1] >= 0
 R74: z_node[12] - z_node[34] + edge[12,34,1] >= 0
 R75: - z_node[11] + z_node[13] + edge[13,11,1] >= 0
 R76: z_node[13] - z_node[32] + edge[13,32,1] >= 0
 R77: z_node[13] - z_node[33] + edge[13,33,1] >= 0
 R78: z_node[13] - z_node[37] + edge[13,37,1] >= 0
 R79: z_node[13] - z_node[53] + edge[13,53,1] >= 0
 R80: z_node[13] - z_node[56] + edge[13,56,1] >= 0
 R81: z_node[13] - z_node[58] + edge[13,58,1] >= 0
 R82: - z_node[0] + z_node[14] + edge[14,0,1] >= 0
 R83: - z_node[1] + z_node[14] + edge[14,1,1] >= 0
 R84: - z_node[2] + z_node[14] + edge[14,2,1] >= 0
 R85: z_node[14] - z_node[23] + edge[14,23,1] >= 0
 R86: z_node[14] - z_node[30] + edge[14,30,1] >= 0
 R87: z_node[14] - z_node[32] + edge[14,32,1] >= 0
 R88: z_node[14] - z_node[36] + edge[14,36,1] >= 0
 R89: z_node[14] - z_node[49] + edge[14,49,1] >= 0
 R90: z_node[14] - z_node[54] + edge[14,54,1] >= 0
 R91: z_node[15] - z_node[26] + edge[15,26,1] >= 0
 R92: z_node[15] - z_node[37] + edge[15,37,1] >= 0
 R93: z_node[15] - z_node[56] + edge[15,56,1] >= 0
 R94: z_node[16] - z_node[26] + edge[16,26,1] >= 0
 R95: z_node[16] - z_node[31] + edge[16,31,1] >= 0
 R96: z_node[17] - z_node[24] + edge[17,24,1] >= 0
 R97: z_node[17] - z_node[28] + edge[17,28,1] >= 0
 R98: z_node[17] - z_node[35] + edge[17,35,1] >= 0
 R99: z_node[17] - z_node[37] + edge[17,37,1] >= 0
 R100: z_node[17] - z_node[42] + edge[17,42,1] >= 0
 R101: z_node[17] - z_node[46] + edge[17,46,1] >= 0
 R102: z_node[17] - z_node[47] + edge[17,47,1] >= 0
 R103: - z_node[0] + z_node[18] + edge[18,0,1] >= 0
 R104: - z_node[4] + z_node[18] + edge[18,4,1] >= 0
 R105: - z_node[11] + z_node[18] + edge[18,11,1] >= 0
 R106: z_node[18] - z_node[24] + edge[18,24,1] >= 0
 R107: z_node[18] - z_node[27] + edge[18,27,1] >= 0
 R108: z_node[18] - z_node[38] + edge[18,38,1] >= 0
 R109: z_node[18] - z_node[50] + edge[18,50,1] >= 0
 R110: z_node[19] - z_node[24] + edge[19,24,1] >= 0
 R111: z_node[19] - z_node[34] + edge[19,34,1] >= 0
 R112: z_node[19] - z_node[38] + edge[19,38,1] >= 0
 R113: z_node[19] - z_node[43] + edge[19,43,1] >= 0
 R114: z_node[19] - z_node[45] + edge[19,45,1] >= 0
 R115: z_node[19] - z_node[47] + edge[19,47,1] >= 0
 R116: z_node[19] - z_node[52] + edge[19,52,1] >= 0
 R117: z_node[19] - z_node[54] + edge[19,54,1] >= 0
 R118: z_node[19] - z_node[55] + edge[19,55,1] >= 0
 R119: - z_node[9] + z_node[20] + edge[20,9,1] >= 0
 R120: z_node[20] - z_node[27] + edge[20,27,1] >= 0
 R121: z_node[20] - z_node[34] + edge[20,34,1] >= 0
 R122: z_node[20] - z_node[40] + edge[20,40,1] >= 0
 R123: z_node[20] - z_node[42] + edge[20,42,1] >= 0
 R124: - z_node[1] + z_node[21] + edge[21,1,1] >= 0
 R125: - z_node[3] + z_node[21] + edge[21,3,1] >= 0
 R126: - z_node[10] + z_node[21] + edge[21,10,1] >= 0
 R127: z_node[22] - z_node[29] + edge[22,29,1] >= 0
 R128: z_node[22] - z_node[32] + edge[22,32,1] >= 0
 R129: z_node[22] - z_node[36] + edge[22,36,1] >= 0
 R130: - z_node[10] + z_node[23] + edge[23,10,1] >= 0
 R131: - z_node[14] + z_node[23] + edge[23,14,1] >= 0
 R132: z_node[23] - z_node[34] + edge[23,34,1] >= 0
 R133: z_node[23] - z_node[35] + edge[23,35,1] >= 0
 R134: z_node[23] - z_node[41] + edge[23,41,1] >= 0
 R135: z_node[23] - z_node[49] + edge[23,49,1] >= 0
 R136: - z_node[17] + z_node[24] + edge[24,17,1] >= 0
 R137: - z_node[18] + z_node[24] + edge[24,18,1] >= 0
 R138: - z_node[19] + z_node[24] + edge[24,19,1] >= 0
 R139: z_node[24] - z_node[34] + edge[24,34,1] >= 0
 R140: z_node[24] - z_node[51] + edge[24,51,1] >= 0
 R141: - z_node[4] + z_node[25] + edge[25,4,1] >= 0
 R142: - z_node[9] + z_node[25] + edge[25,9,1] >= 0
 R143: - z_node[12] + z_node[25] + edge[25,12,1] >= 0
 R144: z_node[25] - z_node[32] + edge[25,32,1] >= 0
 R145: z_node[25] - z_node[33] + edge[25,33,1] >= 0
 R146: z_node[25] - z_node[34] + edge[25,34,1] >= 0
 R147: z_node[25] - z_node[39] + edge[25,39,1] >= 0
 R148: z_node[25] - z_node[40] + edge[25,40,1] >= 0
 R149: z_node[25] - z_node[48] + edge[25,48,1] >= 0
 R150: - z_node[15] + z_node[26] + edge[26,15,1] >= 0
 R151: - z_node[16] + z_node[26] + edge[26,16,1] >= 0
 R152: z_node[26] - z_node[33] + edge[26,33,1] >= 0
 R153: z_node[26] - z_node[35] + edge[26,35,1] >= 0
 R154: z_node[26] - z_node[41] + edge[26,41,1] >= 0
 R155: z_node[26] - z_node[51] + edge[26,51,1] >= 0
 R156: - z_node[2] + z_node[27] + edge[27,2,1] >= 0
 R157: - z_node[3] + z_node[27] + edge[27,3,1] >= 0
 R158: - z_node[8] + z_node[27] + edge[27,8,1] >= 0
 R159: - z_node[18] + z_node[27] + edge[27,18,1] >= 0
 R160: - z_node[20] + z_node[27] + edge[27,20,1] >= 0
 R161: z_node[27] - z_node[51] + edge[27,51,1] >= 0
 R162: - z_node[17] + z_node[28] + edge[28,17,1] >= 0
 R163: z_node[28] - z_node[46] + edge[28,46,1] >= 0
 R164: - z_node[22] + z_node[29] + edge[29,22,1] >= 0
 R165: z_node[29] - z_node[32] + edge[29,32,1] >= 0
 R166: z_node[29] - z_node[40] + edge[29,40,1] >= 0
 R167: z_node[29] - z_node[53] + edge[29,53,1] >= 0
 R168: - z_node[14] + z_node[30] + edge[30,14,1] >= 0
 R169: z_node[30] - z_node[33] + edge[30,33,1] >= 0
 R170: z_node[30] - z_node[34] + edge[30,34,1] >= 0
 R171: z_node[30] - z_node[35] + edge[30,35,1] >= 0
 R172: - z_node[5] + z_node[31] + edge[31,5,1] >= 0
 R173: - z_node[6] + z_node[31] + edge[31,6,1] >= 0
 R174: - z_node[16] + z_node[31] + edge[31,16,1] >= 0
 R175: z_node[31] - z_node[35] + edge[31,35,1] >= 0
 R176: z_node[31] - z_node[49] + edge[31,49,1] >= 0
 R177: - z_node[4] + z_node[32] + edge[32,4,1] >= 0
 R178: - z_node[11] + z_node[32] + edge[32,11,1] >= 0
 R179: - z_node[13] + z_node[32] + edge[32,13,1] >= 0
 R180: - z_node[14] + z_node[32] + edge[32,14,1] >= 0
 R181: - z_node[22] + z_node[32] + edge[32,22,1] >= 0
 R182: - z_node[25] + z_node[32] + edge[32,25,1] >= 0
 R183: - z_node[29] + z_node[32] + edge[32,29,1] >= 0
 R184: z_node[32] - z_node[41] + edge[32,41,1] >= 0
 R185: - z_node[3] + z_node[33] + edge[33,3,1] >= 0
 R186: - z_node[13] + z_node[33] + edge[33,13,1] >= 0
 R187: - z_node[25] + z_node[33] + edge[33,25,1] >= 0
 R188: - z_node[26] + z_node[33] + edge[33,26,1] >= 0
 R189: - z_node[30] + z_node[33] + edge[33,30,1] >= 0
 R190: z_node[33] - z_node[49] + edge[33,49,1] >= 0
 R191: - z_node[3] + z_node[34] + edge[34,3,1] >= 0
 R192: - z_node[5] + z_node[34] + edge[34,5,1] >= 0
 R193: - z_node[12] + z_node[34] + edge[34,12,1] >= 0
 R194: - z_node[19] + z_node[34] + edge[34,19,1] >= 0
 R195: - z_node[20] + z_node[34] + edge[34,20,1] >= 0
 R196: - z_node[23] + z_node[34] + edge[34,23,1] >= 0
 R197: - z_node[24] + z_node[34] + edge[34,24,1] >= 0
 R198: - z_node[25] + z_node[34] + edge[34,25,1] >= 0
 R199: - z_node[30] + z_node[34] + edge[34,30,1] >= 0
 R200: - z_node[4] + z_node[35] + edge[35,4,1] >= 0
 R201: - z_node[17] + z_node[35] + edge[35,17,1] >= 0
 R202: - z_node[23] + z_node[35] + edge[35,23,1] >= 0
 R203: - z_node[26] + z_node[35] + edge[35,26,1] >= 0
 R204: - z_node[30] + z_node[35] + edge[35,30,1] >= 0
 R205: - z_node[31] + z_node[35] + edge[35,31,1] >= 0
 R206: z_node[35] - z_node[45] + edge[35,45,1] >= 0
 R207: z_node[35] - z_node[49] + edge[35,49,1] >= 0
 R208: - z_node[3] + z_node[36] + edge[36,3,1] >= 0
 R209: - z_node[4] + z_node[36] + edge[36,4,1] >= 0
 R210: - z_node[14] + z_node[36] + edge[36,14,1] >= 0
 R211: - z_node[22] + z_node[36] + edge[36,22,1] >= 0
 R212: z_node[36] - z_node[37] + edge[36,37,1] >= 0
 R213: z_node[36] - z_node[54] + edge[36,54,1] >= 0
 R214: - z_node[13] + z_node[37] + edge[37,13,1] >= 0
 R215: - z_node[15] + z_node[37] + edge[37,15,1] >= 0
 R216: - z_node[17] + z_node[37] + edge[37,17,1] >= 0
 R217: - z_node[36] + z_node[37] + edge[37,36,1] >= 0
 R218: z_node[37] - z_node[42] + edge[37,42,1] >= 0
 R219: z_node[37] - z_node[44] + edge[37,44,1] >= 0
 R220: z_node[37] - z_node[50] + edge[37,50,1] >= 0
 R221: - z_node[2] + z_node[38] + edge[38,2,1] >= 0
 R222: - z_node[3] + z_node[38] + edge[38,3,1] >= 0
 R223: - z_node[18] + z_node[38] + edge[38,18,1] >= 0
 R224: - z_node[19] + z_node[38] + edge[38,19,1] >= 0
 R225: z_node[38] - z_node[40] + edge[38,40,1] >= 0
 R226: z_node[38] - z_node[47] + edge[38,47,1] >= 0
 R227: z_node[38] - z_node[52] + edge[38,52,1] >= 0
 R228: - z_node[8] + z_node[39] + edge[39,8,1] >= 0
 R229: - z_node[10] + z_node[39] + edge[39,10,1] >= 0
 R230: - z_node[25] + z_node[39] + edge[39,25,1] >= 0
 R231: - z_node[10] + z_node[40] + edge[40,10,1] >= 0
 R232: - z_node[20] + z_node[40] + edge[40,20,1] >= 0
 R233: - z_node[25] + z_node[40] + edge[40,25,1] >= 0
 R234: - z_node[29] + z_node[40] + edge[40,29,1] >= 0
 R235: - z_node[38] + z_node[40] + edge[40,38,1] >= 0
 R236: z_node[40] - z_node[43] + edge[40,43,1] >= 0
 R237: - z_node[6] + z_node[41] + edge[41,6,1] >= 0
 R238: - z_node[7] + z_node[41] + edge[41,7,1] >= 0
 R239: - z_node[23] + z_node[41] + edge[41,23,1] >= 0
 R240: - z_node[26] + z_node[41] + edge[41,26,1] >= 0
 R241: - z_node[32] + z_node[41] + edge[41,32,1] >= 0
 R242: z_node[41] - z_node[50] + edge[41,50,1] >= 0
 R243: z_node[41] - z_node[54] + edge[41,54,1] >= 0
 R244: - z_node[1] + z_node[42] + edge[42,1,1] >= 0
 R245: - z_node[4] + z_node[42] + edge[42,4,1] >= 0
 R246: - z_node[17] + z_node[42] + edge[42,17,1] >= 0
 R247: - z_node[20] + z_node[42] + edge[42,20,1] >= 0
 R248: - z_node[37] + z_node[42] + edge[42,37,1] >= 0
 R249: z_node[42] - z_node[54] + edge[42,54,1] >= 0
 R250: - z_node[19] + z_node[43] + edge[43,19,1] >= 0
 R251: - z_node[40] + z_node[43] + edge[43,40,1] >= 0
 R252: z_node[43] - z_node[55] + edge[43,55,1] >= 0
 R253: - z_node[37] + z_node[44] + edge[44,37,1] >= 0
 R254: z_node[44] - z_node[49] + edge[44,49,1] >= 0
 R255: - z_node[7] + z_node[45] + edge[45,7,1] >= 0
 R256: - z_node[11] + z_node[45] + edge[45,11,1] >= 0
 R257: - z_node[19] + z_node[45] + edge[45,19,1] >= 0
 R258: - z_node[35] + z_node[45] + edge[45,35,1] >= 0
 R259: z_node[45] - z_node[56] + edge[45,56,1] >= 0
 R260: - z_node[17] + z_node[46] + edge[46,17,1] >= 0
 R261: - z_node[28] + z_node[46] + edge[46,28,1] >= 0
 R262: - z_node[3] + z_node[47] + edge[47,3,1] >= 0
 R263: - z_node[9] + z_node[47] + edge[47,9,1] >= 0
 R264: - z_node[17] + z_node[47] + edge[47,17,1] >= 0
 R265: - z_node[19] + z_node[47] + edge[47,19,1] >= 0
 R266: - z_node[38] + z_node[47] + edge[47,38,1] >= 0
 R267: z_node[47] - z_node[49] + edge[47,49,1] >= 0
 R268: - z_node[25] + z_node[48] + edge[48,25,1] >= 0
 R269: z_node[48] - z_node[58] + edge[48,58,1] >= 0
 R270: - z_node[7] + z_node[49] + edge[49,7,1] >= 0
 R271: - z_node[14] + z_node[49] + edge[49,14,1] >= 0
 R272: - z_node[23] + z_node[49] + edge[49,23,1] >= 0
 R273: - z_node[31] + z_node[49] + edge[49,31,1] >= 0
 R274: - z_node[33] + z_node[49] + edge[49,33,1] >= 0
 R275: - z_node[35] + z_node[49] + edge[49,35,1] >= 0
 R276: - z_node[44] + z_node[49] + edge[49,44,1] >= 0
 R277: - z_node[47] + z_node[49] + edge[49,47,1] >= 0
 R278: - z_node[8] + z_node[50] + edge[50,8,1] >= 0
 R279: - z_node[18] + z_node[50] + edge[50,18,1] >= 0
 R280: - z_node[37] + z_node[50] + edge[50,37,1] >= 0
 R281: - z_node[41] + z_node[50] + edge[50,41,1] >= 0
 R282: z_node[50] - z_node[58] + edge[50,58,1] >= 0
 R283: - z_node[9] + z_node[51] + edge[51,9,1] >= 0
 R284: - z_node[24] + z_node[51] + edge[51,24,1] >= 0
 R285: - z_node[26] + z_node[51] + edge[51,26,1] >= 0
 R286: - z_node[27] + z_node[51] + edge[51,27,1] >= 0
 R287: - z_node[2] + z_node[52] + edge[52,2,1] >= 0
 R288: - z_node[19] + z_node[52] + edge[52,19,1] >= 0
 R289: - z_node[38] + z_node[52] + edge[52,38,1] >= 0
 R290: - z_node[0] + z_node[53] + edge[53,0,1] >= 0
 R291: - z_node[7] + z_node[53] + edge[53,7,1] >= 0
 R292: - z_node[13] + z_node[53] + edge[53,13,1] >= 0
 R293: - z_node[29] + z_node[53] + edge[53,29,1] >= 0
 R294: - z_node[14] + z_node[54] + edge[54,14,1] >= 0
 R295: - z_node[19] + z_node[54] + edge[54,19,1] >= 0
 R296: - z_node[36] + z_node[54] + edge[54,36,1] >= 0
 R297: - z_node[41] + z_node[54] + edge[54,41,1] >= 0
 R298: - z_node[42] + z_node[54] + edge[54,42,1] >= 0
 R299: z_node[54] - z_node[56] + edge[54,56,1] >= 0
 R300: - z_node[3] + z_node[55] + edge[55,3,1] >= 0
 R301: - z_node[19] + z_node[55] + edge[55,19,1] >= 0
 R302: - z_node[43] + z_node[55] + edge[55,43,1] >= 0
 R303: - z_node[1] + z_node[56] + edge[56,1,1] >= 0
 R304: - z_node[13] + z_node[56] + edge[56,13,1] >= 0
 R305: - z_node[15] + z_node[56] + edge[56,15,1] >= 0
 R306: - z_node[45] + z_node[56] + edge[56,45,1] >= 0
 R307: - z_node[54] + z_node[56] + edge[56,54,1] >= 0
 R308: - z_node[8] + z_node[57] + edge[57,8,1] >= 0
 R309: - z_node[24] + z_node[57] + edge[57,24,1] >= 0
 R310: - z_node[31] + z_node[57] + edge[57,31,1] >= 0
 R311: - z_node[52] + z_node[57] + edge[57,52,1] >= 0
 R312: - z_node[57] + z_node[58] = 1
 sign_edge[0,1,1]: edge[0,1,1] >= 0
 sign_edge[0,14,1]: edge[0,14,1] >= 0
 sign_edge[0,18,1]: edge[0,18,1] >= 0
 sign_edge[0,53,1]: edge[0,53,1] >= 0
 sign_edge[1,0,1]: edge[1,0,1] >= 0
 sign_edge[1,6,1]: edge[1,6,1] >= 0
 sign_edge[1,14,1]: edge[1,14,1] >= 0
 sign_edge[1,21,1]: edge[1,21,1] >= 0
 sign_edge[1,42,1]: edge[1,42,1] >= 0
 sign_edge[1,56,1]: edge[1,56,1] >= 0
 sign_edge[2,3,1]: edge[2,3,1] >= 0
 sign_edge[2,7,1]: edge[2,7,1] >= 0
 sign_edge[2,9,1]: edge[2,9,1] >= 0
 sign_edge[2,11,1]: edge[2,11,1] >= 0
 sign_edge[2,14,1]: edge[2,14,1] >= 0
 sign_edge[2,27,1]: edge[2,27,1] >= 0
 sign_edge[2,38,1]: edge[2,38,1] >= 0
 sign_edge[2,52,1]: edge[2,52,1] >= 0
 sign_edge[3,2,1]: edge[3,2,1] >= 0
 sign_edge[3,4,1]: edge[3,4,1] >= 0
 sign_edge[3,5,1]: edge[3,5,1] >= 0
 sign_edge[3,21,1]: edge[3,21,1] >= 0
 sign_edge[3,27,1]: edge[3,27,1] >= 0
 sign_edge[3,33,1]: edge[3,33,1] >= 0
 sign_edge[3,34,1]: edge[3,34,1] >= 0
 sign_edge[3,36,1]: edge[3,36,1] >= 0
 sign_edge[3,38,1]: edge[3,38,1] >= 0
 sign_edge[3,47,1]: edge[3,47,1] >= 0
 sign_edge[3,55,1]: edge[3,55,1] >= 0
 sign_edge[4,3,1]: edge[4,3,1] >= 0
 sign_edge[4,8,1]: edge[4,8,1] >= 0
 sign_edge[4,18,1]: edge[4,18,1] >= 0
 sign_edge[4,25,1]: edge[4,25,1] >= 0
 sign_edge[4,32,1]: edge[4,32,1] >= 0
 sign_edge[4,35,1]: edge[4,35,1] >= 0
 sign_edge[4,36,1]: edge[4,36,1] >= 0
 sign_edge[4,42,1]: edge[4,42,1] >= 0
 sign_edge[5,3,1]: edge[5,3,1] >= 0
 sign_edge[5,10,1]: edge[5,10,1] >= 0
 sign_edge[5,31,1]: edge[5,31,1] >= 0
 sign_edge[5,34,1]: edge[5,34,1] >= 0
 sign_edge[6,1,1]: edge[6,1,1] >= 0
 sign_edge[6,10,1]: edge[6,10,1] >= 0
 sign_edge[6,31,1]: edge[6,31,1] >= 0
 sign_edge[6,41,1]: edge[6,41,1] >= 0
 sign_edge[7,2,1]: edge[7,2,1] >= 0
 sign_edge[7,12,1]: edge[7,12,1] >= 0
 sign_edge[7,41,1]: edge[7,41,1] >= 0
 sign_edge[7,45,1]: edge[7,45,1] >= 0
 sign_edge[7,49,1]: edge[7,49,1] >= 0
 sign_edge[7,53,1]: edge[7,53,1] >= 0
 sign_edge[7,58,1]: edge[7,58,1] >= 0
 sign_edge[8,4,1]: edge[8,4,1] >= 0
 sign_edge[8,27,1]: edge[8,27,1] >= 0
 sign_edge[8,39,1]: edge[8,39,1] >= 0
 sign_edge[8,50,1]: edge[8,50,1] >= 0
 sign_edge[8,57,1]: edge[8,57,1] >= 0
 sign_edge[9,2,1]: edge[9,2,1] >= 0
 sign_edge[9,20,1]: edge[9,20,1] >= 0
 sign_edge[9,25,1]: edge[9,25,1] >= 0
 sign_edge[9,47,1]: edge[9,47,1] >= 0
 sign_edge[9,51,1]: edge[9,51,1] >= 0
 sign_edge[10,5,1]: edge[10,5,1] >= 0
 sign_edge[10,6,1]: edge[10,6,1] >= 0
 sign_edge[10,21,1]: edge[10,21,1] >= 0
 sign_edge[10,23,1]: edge[10,23,1] >= 0
 sign_edge[10,39,1]: edge[10,39,1] >= 0
 sign_edge[10,40,1]: edge[10,40,1] >= 0
 sign_edge[11,2,1]: edge[11,2,1] >= 0
 sign_edge[11,13,1]: edge[11,13,1] >= 0
 sign_edge[11,18,1]: edge[11,18,1] >= 0
 sign_edge[11,32,1]: edge[11,32,1] >= 0
 sign_edge[11,45,1]: edge[11,45,1] >= 0
 sign_edge[12,7,1]: edge[12,7,1] >= 0
 sign_edge[12,25,1]: edge[12,25,1] >= 0
 sign_edge[12,34,1]: edge[12,34,1] >= 0
 sign_edge[13,11,1]: edge[13,11,1] >= 0
 sign_edge[13,32,1]: edge[13,32,1] >= 0
 sign_edge[13,33,1]: edge[13,33,1] >= 0
 sign_edge[13,37,1]: edge[13,37,1] >= 0
 sign_edge[13,53,1]: edge[13,53,1] >= 0
 sign_edge[13,56,1]: edge[13,56,1] >= 0
 sign_edge[13,58,1]: edge[13,58,1] >= 0
 sign_edge[14,0,1]: edge[14,0,1] >= 0
 sign_edge[14,1,1]: edge[14,1,1] >= 0
 sign_edge[14,2,1]: edge[14,2,1] >= 0
 sign_edge[14,23,1]: edge[14,23,1] >= 0
 sign_edge[14,30,1]: edge[14,30,1] >= 0
 sign_edge[14,32,1]: edge[14,32,1] >= 0
 sign_edge[14,36,1]: edge[14,36,1] >= 0
 sign_edge[14,49,1]: edge[14,49,1] >= 0
 sign_edge[14,54,1]: edge[14,54,1] >= 0
 sign_edge[15,26,1]: edge[15,26,1] >= 0
 sign_edge[15,37,1]: edge[15,37,1] >= 0
 sign_edge[15,56,1]: edge[15,56,1] >= 0
 sign_edge[16,26,1]: edge[16,26,1] >= 0
 sign_edge[16,31,1]: edge[16,31,1] >= 0
 sign_edge[17,24,1]: edge[17,24,1] >= 0
 sign_edge[17,28,1]: edge[17,28,1] >= 0
 sign_edge[17,35,1]: edge[17,35,1] >= 0
 sign_edge[17,37,1]: edge[17,37,1] >= 0
 sign_edge[17,42,1]: edge[17,42,1] >= 0
 sign_edge[17,46,1]: edge[17,46,1] >= 0
 sign_edge[17,47,1]: edge[17,47,1] >= 0
 sign_edge[18,0,1]: edge[18,0,1] >= 0
 sign_edge[18,4,1]: edge[18,4,1] >= 0
 sign_edge[18,11,1]: edge[18,11,1] >= 0
 sign_edge[18,24,1]: edge[18,24,1] >= 0
 sign_edge[18,27,1]: edge[18,27,1] >= 0
 sign_edge[18,38,1]: edge[18,38,1] >= 0
 sign_edge[18,50,1]: edge[18,50,1] >= 0
 sign_edge[19,24,1]: edge[19,24,1] >= 0
 sign_edge[19,34,1]: edge[19,34,1] >= 0
 sign_edge[19,38,1]: edge[19,38,1] >= 0
 sign_edge[19,43,1]: edge[19,43,1] >= 0
 sign_edge[19,45,1]: edge[19,45,1] >= 0
 sign_edge[19,47,1]: edge[19,47,1] >= 0
 sign_edge[19,52,1]: edge[19,52,1] >= 0
 sign_edge[19,54,1]: edge[19,54,1] >= 0
 sign_edge[19,55,1]: edge[19,55,1] >= 0
 sign_edge[20,9,1]: edge[20,9,1] >= 0
 sign_edge[20,27,1]: edge[20,27,1] >= 0
 sign_edge[20,34,1]: edge[20,34,1] >= 0
 sign_edge[20,40,1]: edge[20,40,1] >= 0
 sign_edge[20,42,1]: edge[20,42,1] >= 0
 sign_edge[21,1,1]: edge[21,1,1] >= 0
 sign_edge[21,3,1]: edge[21,3,1] >= 0
 sign_edge[21,10,1]: edge[21,10,1] >= 0
 sign_edge[22,29,1]: edge[22,29,1] >= 0
 sign_edge[22,32,1]: edge[22,32,1] >= 0
 sign_edge[22,36,1]: edge[22,36,1] >= 0
 sign_edge[23,10,1]: edge[23,10,1] >= 0
 sign_edge[23,14,1]: edge[23,14,1] >= 0
 sign_edge[23,34,1]: edge[23,34,1] >= 0
 sign_edge[23,35,1]: edge[23,35,1] >= 0
 sign_edge[23,41,1]: edge[23,41,1] >= 0
 sign_edge[23,49,1]: edge[23,49,1] >= 0
 sign_edge[24,17,1]: edge[24,17,1] >= 0
 sign_edge[24,18,1]: edge[24,18,1] >= 0
 sign_edge[24,19,1]: edge[24,19,1] >= 0
 sign_edge[24,34,1]: edge[24,34,1] >= 0
 sign_edge[24,51,1]: edge[24,51,1] >= 0
 sign_edge[24,57,1]: edge[24,57,1] >= 0
 sign_edge[25,4,1]: edge[25,4,1] >= 0
 sign_edge[25,9,1]: edge[25,9,1] >= 0
 sign_edge[25,12,1]: edge[25,12,1] >= 0
 sign_edge[25,32,1]: edge[25,32,1] >= 0
 sign_edge[25,33,1]: edge[25,33,1] >= 0
 sign_edge[25,34,1]: edge[25,34,1] >= 0
 sign_edge[25,39,1]: edge[25,39,1] >= 0
 sign_edge[25,40,1]: edge[25,40,1] >= 0
 sign_edge[25,48,1]: edge[25,48,1] >= 0
 sign_edge[26,15,1]: edge[26,15,1] >= 0
 sign_edge[26,16,1]: edge[26,16,1] >= 0
 sign_edge[26,33,1]: edge[26,33,1] >= 0
 sign_edge[26,35,1]: edge[26,35,1] >= 0
 sign_edge[26,41,1]: edge[26,41,1] >= 0
 sign_edge[26,51,1]: edge[26,51,1] >= 0
 sign_edge[27,2,1]: edge[27,2,1] >= 0
 sign_edge[27,3,1]: edge[27,3,1] >= 0
 sign_edge[27,8,1]: edge[27,8,1] >= 0
 sign_edge[27,18,1]: edge[27,18,1] >= 0
 sign_edge[27,20,1]: edge[27,20,1] >= 0
 sign_edge[27,51,1]: edge[27,51,1] >= 0
 sign_edge[28,17,1]: edge[28,17,1] >= 0
 sign_edge[28,46,1]: edge[28,46,1] >= 0
 sign_edge[29,22,1]: edge[29,22,1] >= 0
 sign_edge[29,32,1]: edge[29,32,1] >= 0
 sign_edge[29,40,1]: edge[29,40,1] >= 0
 sign_edge[29,53,1]: edge[29,53,1] >= 0
 sign_edge[30,14,1]: edge[30,14,1] >= 0
 sign_edge[30,33,1]: edge[30,33,1] >= 0
 sign_edge[30,34,1]: edge[30,34,1] >= 0
 sign_edge[30,35,1]: edge[30,35,1] >= 0
 sign_edge[31,5,1]: edge[31,5,1] >= 0
 sign_edge[31,6,1]: edge[31,6,1] >= 0
 sign_edge[31,16,1]: edge[31,16,1] >= 0
 sign_edge[31,35,1]: edge[31,35,1] >= 0
 sign_edge[31,49,1]: edge[31,49,1] >= 0
 sign_edge[31,57,1]: edge[31,57,1] >= 0
 sign_edge[32,4,1]: edge[32,4,1] >= 0
 sign_edge[32,11,1]: edge[32,11,1] >= 0
 sign_edge[32,13,1]: edge[32,13,1] >= 0
 sign_edge[32,14,1]: edge[32,14,1] >= 0
 sign_edge[32,22,1]: edge[32,22,1] >= 0
 sign_edge[32,25,1]: edge[32,25,1] >= 0
 sign_edge[32,29,1]: edge[32,29,1] >= 0
 sign_edge[32,41,1]: edge[32,41,1] >= 0
 sign_edge[33,3,1]: edge[33,3,1] >= 0
 sign_edge[33,13,1]: edge[33,13,1] >= 0
 sign_edge[33,25,1]: edge[33,25,1] >= 0
 sign_edge[33,26,1]: edge[33,26,1] >= 0
 sign_edge[33,30,1]: edge[33,30,1] >= 0
 sign_edge[33,49,1]: edge[33,49,1] >= 0
 sign_edge[34,3,1]: edge[34,3,1] >= 0
 sign_edge[34,5,1]: edge[34,5,1] >= 0
 sign_edge[34,12,1]: edge[34,12,1] >= 0
 sign_edge[34,19,1]: edge[34,19,1] >= 0
 sign_edge[34,20,1]: edge[34,20,1] >= 0
 sign_edge[34,23,1]: edge[34,23,1] >= 0
 sign_edge[34,24,1]: edge[34,24,1] >= 0
 sign_edge[34,25,1]: edge[34,25,1] >= 0
 sign_edge[34,30,1]: edge[34,30,1] >= 0
 sign_edge[35,4,1]: edge[35,4,1] >= 0
 sign_edge[35,17,1]: edge[35,17,1] >= 0
 sign_edge[35,23,1]: edge[35,23,1] >= 0
 sign_edge[35,26,1]: edge[35,26,1] >= 0
 sign_edge[35,30,1]: edge[35,30,1] >= 0
 sign_edge[35,31,1]: edge[35,31,1] >= 0
 sign_edge[35,45,1]: edge[35,45,1] >= 0
 sign_edge[35,49,1]: edge[35,49,1] >= 0
 sign_edge[36,3,1]: edge[36,3,1] >= 0
 sign_edge[36,4,1]: edge[36,4,1] >= 0
 sign_edge[36,14,1]: edge[36,14,1] >= 0
 sign_edge[36,22,1]: edge[36,22,1] >= 0
 sign_edge[36,37,1]: edge[36,37,1] >= 0
 sign_edge[36,54,1]: edge[36,54,1] >= 0
 sign_edge[37,13,1]: edge[37,13,1] >= 0
 sign_edge[37,15,1]: edge[37,15,1] >= 0
 sign_edge[37,17,1]: edge[37,17,1] >= 0
 sign_edge[37,36,1]: edge[37,36,1] >= 0
 sign_edge[37,42,1]: edge[37,42,1] >= 0
 sign_edge[37,44,1]: edge[37,44,1] >= 0
 sign_edge[37,50,1]: edge[37,50,1] >= 0
 sign_edge[38,2,1]: edge[38,2,1] >= 0
 sign_edge[38,3,1]: edge[38,3,1] >= 0
 sign_edge[38,18,1]: edge[38,18,1] >= 0
 sign_edge[38,19,1]: edge[38,19,1] >= 0
 sign_edge[38,40,1]: edge[38,40,1] >= 0
 sign_edge[38,47,1]: edge[38,47,1] >= 0
 sign_edge[38,52,1]: edge[38,52,1] >= 0
 sign_edge[39,8,1]: edge[39,8,1] >= 0
 sign_edge[39,10,1]: edge[39,10,1] >= 0
 sign_edge[39,25,1]: edge[39,25,1] >= 0
 sign_edge[40,10,1]: edge[40,10,1] >= 0
 sign_edge[40,20,1]: edge[40,20,1] >= 0
 sign_edge[40,25,1]: edge[40,25,1] >= 0
 sign_edge[40,29,1]: edge[40,29,1] >= 0
 sign_edge[40,38,1]: edge[40,38,1] >= 0
 sign_edge[40,43,1]: edge[40,43,1] >= 0
 sign_edge[41,6,1]: edge[41,6,1] >= 0
 sign_edge[41,7,1]: edge[41,7,1] >= 0
 sign_edge[41,23,1]: edge[41,23,1] >= 0
 sign_edge[41,26,1]: edge[41,26,1] >= 0
 sign_edge[41,32,1]: edge[41,32,1] >= 0
 sign_edge[41,50,1]: edge[41,50,1] >= 0
 sign_edge[41,54,1]: edge[41,54,1] >= 0
 sign_edge[42,1,1]: edge[42,1,1] >= 0
 sign_edge[42,4,1]: edge[42,4,1] >= 0
 sign_edge[42,17,1]: edge[42,17,1] >= 0
 sign_edge[42,20,1]: edge[42,20,1] >= 0
 sign_edge[42,37,1]: edge[42,37,1] >= 0
 sign_edge[42,54,1]: edge[42,54,1] >= 0
 sign_edge[43,19,1]: edge[43,19,1] >= 0
 sign_edge[43,40,1]: edge[43,40,1] >= 0
 sign_edge[43,55,1]: edge[43,55,1] >= 0
 sign_edge[44,37,1]: edge[44,37,1] >= 0
 sign_edge[44,49,1]: edge[44,49,1] >= 0
 sign_edge[45,7,1]: edge[45,7,1] >= 0
 sign_edge[45,11,1]: edge[45,11,1] >= 0
 sign_edge[45,19,1]: edge[45,19,1] >= 0
 sign_edge[45,35,1]: edge[45,35,1] >= 0
 sign_edge[45,56,1]: edge[45,56,1] >= 0
 sign_edge[46,17,1]: edge[46,17,1] >= 0
 sign_edge[46,28,1]: edge[46,28,1] >= 0
 sign_edge[47,3,1]: edge[47,3,1] >= 0
 sign_edge[47,9,1]: edge[47,9,1] >= 0
 sign_edge[47,17,1]: edge[47,17,1] >= 0
 sign_edge[47,19,1]: edge[47,19,1] >= 0
 sign_edge[47,38,1]: edge[47,38,1] >= 0
 sign_edge[47,49,1]: edge[47,49,1] >= 0
 sign_edge[48,25,1]: edge[48,25,1] >= 0
 sign_edge[48,58,1]: edge[48,58,1] >= 0
 sign_edge[49,7,1]: edge[49,7,1] >= 0
 sign_edge[49,14,1]: edge[49,14,1] >= 0
 sign_edge[49,23,1]: edge[49,23,1] >= 0
 sign_edge[49,31,1]: edge[49,31,1] >= 0
 sign_edge[49,33,1]: edge[49,33,1] >= 0
 sign_edge[49,35,1]: edge[49,35,1] >= 0
 sign_edge[49,44,1]: edge[49,44,1] >= 0
 sign_edge[49,47,1]: edge[49,47,1] >= 0
 sign_edge[50,8,1]: edge[50,8,1] >= 0
 sign_edge[50,18,1]: edge[50,18,1] >= 0
 sign_edge[50,37,1]: edge[50,37,1] >= 0
 sign_edge[50,41,1]: edge[50,41,1] >= 0
 sign_edge[50,58,1]: edge[50,58,1] >= 0
 sign_edge[51,9,1]: edge[51,9,1] >= 0
 sign_edge[51,24,1]: edge[51,24,1] >= 0
 sign_edge[51,26,1]: edge[51,26,1] >= 0
 sign_edge[51,27,1]: edge[51,27,1] >= 0
 sign_edge[52,2,1]: edge[52,2,1] >= 0
 sign_edge[52,19,1]: edge[52,19,1] >= 0
 sign_edge[52,38,1]: edge[52,38,1] >= 0
 sign_edge[52,57,1]: edge[52,57,1] >= 0
 sign_edge[53,0,1]: edge[53,0,1] >= 0
 sign_edge[53,7,1]: edge[53,7,1] >= 0
 sign_edge[53,13,1]: edge[53,13,1] >= 0
 sign_edge[53,29,1]: edge[53,29,1] >= 0
 sign_edge[54,14,1]: edge[54,14,1] >= 0
 sign_edge[54,19,1]: edge[54,19,1] >= 0
 sign_edge[54,36,1]: edge[54,36,1] >= 0
 sign_edge[54,41,1]: edge[54,41,1] >= 0
 sign_edge[54,42,1]: edge[54,42,1] >= 0
 sign_edge[54,56,1]: edge[54,56,1] >= 0
 sign_edge[55,3,1]: edge[55,3,1] >= 0
 sign_edge[55,19,1]: edge[55,19,1] >= 0
 sign_edge[55,43,1]: edge[55,43,1] >= 0
 sign_edge[56,1,1]: edge[56,1,1] >= 0
 sign_edge[56,13,1]: edge[56,13,1] >= 0
 sign_edge[56,15,1]: edge[56,15,1] >= 0
 sign_edge[56,45,1]: edge[56,45,1] >= 0
 sign_edge[56,54,1]: edge[56,54,1] >= 0
 sign_edge[57,8,1]: edge[57,8,1] >= 0
 sign_edge[57,24,1]: edge[57,24,1] >= 0
 sign_edge[57,31,1]: edge[57,31,1] >= 0
 sign_edge[57,52,1]: edge[57,52,1] >= 0
 sign_edge[58,7,1]: edge[58,7,1] >= 0
 sign_edge[58,13,1]: edge[58,13,1] >= 0
 sign_edge[58,48,1]: edge[58,48,1] >= 0
 sign_edge[58,50,1]: edge[58,50,1] >= 0
 sign_node[0]: z_node[0] >= -1e+100
 sign_node[1]: z_node[1] >= -1e+100
 sign_node[2]: z_node[2] >= -1e+100
 sign_node[3]: z_node[3] >= -1e+100
 sign_node[4]: z_node[4] >= -1e+100
 sign_node[5]: z_node[5] >= -1e+100
 sign_node[6]: z_node[6] >= -1e+100
 sign_node[7]: z_node[7] >= -1e+100
 sign_node[8]: z_node[8] >= -1e+100
 sign_node[9]: z_node[9] >= -1e+100
 sign_node[10]: z_node[10] >= -1e+100
 sign_node[11]: z_node[11] >= -1e+100
 sign_node[12]: z_node[12] >= -1e+100
 sign_node[13]: z_node[13] >= -1e+100
 sign_node[14]: z_node[14] >= -1e+100
 sign_node[15]: z_node[15] >= -1e+100
 sign_node[16]: z_node[16] >= -1e+100
 sign_node[17]: z_node[17] >= -1e+100
 sign_node[18]: z_node[18] >= -1e+100
 sign_node[19]: z_node[19] >= -1e+100
 sign_node[20]: z_node[20] >= -1e+100
 sign_node[21]: z_node[21] >= -1e+100
 sign_node[22]: z_node[22] >= -1e+100
 sign_node[23]: z_node[23] >= -1e+100
 sign_node[24]: z_node[24] >= -1e+100
 sign_node[25]: z_node[25] >= -1e+100
 sign_node[26]: z_node[26] >= -1e+100
 sign_node[27]: z_node[27] >= -1e+100
 sign_node[28]: z_node[28] >= -1e+100
 sign_node[29]: z_node[29] >= -1e+100
 sign_node[30]: z_node[30] >= -1e+100
 sign_node[31]: z_node[31] >= -1e+100
 sign_node[32]: z_node[32] >= -1e+100
 sign_node[33]: z_node[33] >= -1e+100
 sign_node[34]: z_node[34] >= -1e+100
 sign_node[35]: z_node[35] >= -1e+100
 sign_node[36]: z_node[36] >= -1e+100
 sign_node[37]: z_node[37] >= -1e+100
 sign_node[38]: z_node[38] >= -1e+100
 sign_node[39]: z_node[39] >= -1e+100
 sign_node[40]: z_node[40] >= -1e+100
 sign_node[41]: z_node[41] >= -1e+100
 sign_node[42]: z_node[42] >= -1e+100
 sign_node[43]: z_node[43] >= -1e+100
 sign_node[44]: z_node[44] >= -1e+100
 sign_node[45]: z_node[45] >= -1e+100
 sign_node[46]: z_node[46] >= -1e+100
 sign_node[47]: z_node[47] >= -1e+100
 sign_node[48]: z_node[48] >= -1e+100
 sign_node[49]: z_node[49] >= -1e+100
 sign_node[50]: z_node[50] >= -1e+100
 sign_node[51]: z_node[51] >= -1e+100
 sign_node[52]: z_node[52] >= -1e+100
 sign_node[53]: z_node[53] >= -1e+100
 sign_node[54]: z_node[54] >= -1e+100
 sign_node[55]: z_node[55] >= -1e+100
 sign_node[56]: z_node[56] >= -1e+100
 sign_node[57]: z_node[57] >= -1e+100
 sign_node[58]: z_node[58] >= -1e+100
Bounds
End
